\ This file has been generated by DOcplex
\ ENCODING=ISO-8859-1
\Problem name: MTZ

Minimize
 obj: 5 x_1_2 + 8 x_1_3 + 4 x_1_4 + 5 x_2_1 + 7 x_2_3 + 4 x_2_4 + 8 x_3_1
      + 7 x_3_2 + 8 x_3_4 + 5 x_4_1 + 5 x_4_2 + 6 x_4_3
Subject To
 c1: x_1_2 + x_1_3 + x_1_4 = 1
 c2: x_2_1 + x_2_3 + x_2_4 = 1
 c3: x_3_1 + x_3_2 + x_3_4 = 1
 c4: x_4_1 + x_4_2 + x_4_3 = 1
 c5: x_1_4 + x_2_4 + x_3_4 = 1
 c6: x_1_4 + x_2_4 + x_3_4 = 1
 c7: x_1_4 + x_2_4 + x_3_4 = 1
 c8: x_1_4 + x_2_4 + x_3_4 = 1
 c9: u_2 - u_3 + 3 x_2_3 <= 2
 c10: u_2 - u_4 + 3 x_2_4 <= 2
 c11: - u_2 + u_3 + 3 x_3_2 <= 2
 c12: u_3 - u_4 + 3 x_3_4 <= 2
 c13: - u_2 + u_4 + 3 x_4_2 <= 2
 c14: - u_3 + u_4 + 3 x_4_3 <= 2

Bounds
 0 <= x_1_2 <= 1
 0 <= x_1_3 <= 1
 0 <= x_1_4 <= 1
 0 <= x_2_1 <= 1
 0 <= x_2_3 <= 1
 0 <= x_2_4 <= 1
 0 <= x_3_1 <= 1
 0 <= x_3_2 <= 1
 0 <= x_3_4 <= 1
 0 <= x_4_1 <= 1
 0 <= x_4_2 <= 1
 0 <= x_4_3 <= 1

Binaries
 x_1_2 x_1_3 x_1_4 x_2_1 x_2_3 x_2_4 x_3_1 x_3_2 x_3_4 x_4_1 x_4_2 x_4_3

Generals
 u_1 u_2 u_3 u_4
End
